6721924838251841773505,14,1,2,06,15,1,2,013,9,1,2,03,13,1,2,03,14,1,2,06,12,1,2,011,10,1,2,03,14,1,2,03,13,1,2,010,8,1,2,011,13,1,2,010,1,1,2,012,7,1,2,014,15,1,2,04,8,1,2,09,11,1,2,05,6,1,2,02,11,1,2,04,12,1,2,015,14,1,2,014,2,1,2,015,10,1,2,08,3,1,2,08,12,1,2,07,3,1,2,06,15,1,2,07,12,1,2,06,8,1,2,06,4,1,2,03,13,1,2,09,2,1,2,03,9,1,2,07,15,1,2,014,13,1,2,015,9,1,2,07,6,1,2,01,1,1,2,012,15,1,2,01,4,1,2,05,6,1,2,02,2,1,2,07,15,1,2,08,2,1,2,09,9,1,2,010,4,1,2,011,13,1,2,08,7,1,2,02,5,1,2,010,11,1,2,08,8,1,2,0